data;
param Title := AngiopterisEvecta;
param start := "1_0_R";
set V :=
51_2_F
110_1_R
39_0_F
55_0_F
16_1_F
101_0_R
25_0_R
41_1_R
21_0_F
68_0_R
25_0_F
83_0_F
82_0_F
41_0_F
43_0_R
70_1_F
67_1_F
50_0_R
52_1_R
56_1_F
55_0_R
37_1_F
93_0_R
55_1_R
43_0_F
101_0_F
72_1_R
86_1_R
51_0_R
110_0_R
72_0_F
18_1_R
67_0_R
53_0_R
43_1_R
110_0_F
5_0_R
41_0_R
0_0_R
23_1_F
63_0_R
20_0_R
23_0_R
110_1_F
65_1_F
70_1_R
52_0_R
56_0_R
6_0_F
38_0_R
93_0_F
59_0_F
38_0_F
16_1_R
1_0_R
103_1_F
73_1_F
39_0_R
38_1_F
77_0_F
55_1_F
74_0_F
72_1_F
86_0_F
56_0_F
70_0_F
59_0_R
51_2_R
103_1_R
37_2_F
95_0_R
38_1_R
0_0_F
5_1_F
59_1_R
16_0_F
6_1_F
43_1_F
68_1_R
70_0_R
20_0_F
86_1_F
64_0_R
103_0_F
51_1_R
1_0_F
23_1_R
101_1_R
37_1_R
73_1_R
23_0_F
64_1_R
59_1_F
19_0_R
22_0_R
95_1_F
64_0_F
72_0_R
51_1_F
95_1_R
50_0_F
18_1_F
65_1_R
51_0_F
21_0_R
67_0_F
22_0_F
52_0_F
63_0_F
101_1_F
6_1_R
18_0_F
37_0_F
73_0_R
68_0_F
53_0_F
25_1_F
5_0_F
37_2_R
37_0_R
5_1_R
77_0_R
16_0_R
68_1_F
74_0_R
63_1_F
6_0_R
19_0_F
103_0_R
64_1_F
18_0_R
25_1_R
63_1_R
67_1_R
41_1_F
95_0_F
65_0_R
86_0_R
83_0_R
65_0_F
73_0_F
56_1_R
52_1_F
82_0_R
;
param w :=
51_2_F	226
110_1_R	497
39_0_F	214
55_0_F	727
16_1_F	1211
101_0_R	142
25_0_R	1779
41_1_R	432
21_0_F	2721
68_0_R	675
25_0_F	1779
83_0_F	10250
82_0_F	2813
41_0_F	432
43_0_R	918
70_1_F	560
67_1_F	1139
50_0_R	2614
52_1_R	466
56_1_F	260
55_0_R	727
37_1_F	236
93_0_R	3682
55_1_R	727
43_0_F	918
101_0_F	142
72_1_R	354
86_1_R	1931
51_0_R	226
110_0_R	497
72_0_F	354
18_1_R	1363
67_0_R	1139
53_0_R	217
43_1_R	918
110_0_F	497
5_0_R	346
41_0_R	432
0_0_R	3494
23_1_F	990
63_0_R	1732
20_0_R	20870
23_0_R	990
110_1_F	497
65_1_F	863
70_1_R	560
52_0_R	466
56_0_R	260
6_0_F	2184
38_0_R	569
93_0_F	3682
59_0_F	1286
38_0_F	569
16_1_R	1211
1_0_R	41258
103_1_F	508
73_1_F	1145
39_0_R	214
38_1_F	569
77_0_F	2774
55_1_F	727
74_0_F	1728
72_1_F	354
86_0_F	1931
56_0_F	260
70_0_F	560
59_0_R	1286
51_2_R	226
103_1_R	508
37_2_F	236
95_0_R	1421
38_1_R	569
0_0_F	3494
5_1_F	346
59_1_R	1286
16_0_F	1211
6_1_F	2184
43_1_F	918
68_1_R	675
70_0_R	560
20_0_F	20870
86_1_F	1931
64_0_R	1120
103_0_F	508
51_1_R	226
1_0_F	41258
23_1_R	990
101_1_R	142
37_1_R	236
73_1_R	1145
23_0_F	990
64_1_R	1120
59_1_F	1286
19_0_R	2968
22_0_R	15596
95_1_F	1421
64_0_F	1120
72_0_R	354
51_1_F	226
95_1_R	1421
50_0_F	2614
18_1_F	1363
65_1_R	863
51_0_F	226
21_0_R	2721
67_0_F	1139
22_0_F	15596
52_0_F	466
63_0_F	1732
101_1_F	142
6_1_R	2184
18_0_F	1363
37_0_F	236
73_0_R	1145
68_0_F	675
53_0_F	217
25_1_F	1779
5_0_F	346
37_2_R	236
37_0_R	236
5_1_R	346
77_0_R	2774
16_0_R	1211
68_1_F	675
74_0_R	1728
63_1_F	1732
6_0_R	2184
19_0_F	2968
103_0_R	508
64_1_F	1120
18_0_R	1363
25_1_R	1779
63_1_R	1732
67_1_R	1139
41_1_F	432
95_0_F	1421
65_0_R	863
86_0_R	1931
83_0_R	10250
65_0_F	863
73_0_F	1145
56_1_R	260
52_1_F	466
82_0_R	2813
;
set reverse :=
51_2_F	51_2_R
110_1_R	110_1_F
39_0_F	39_0_R
55_0_F	55_0_R
16_1_F	16_1_R
101_0_R	101_0_F
25_0_R	25_0_F
41_1_R	41_1_F
21_0_F	21_0_R
68_0_R	68_0_F
25_0_F	25_0_R
83_0_F	83_0_R
82_0_F	82_0_R
41_0_F	41_0_R
43_0_R	43_0_F
70_1_F	70_1_R
67_1_F	67_1_R
50_0_R	50_0_F
52_1_R	52_1_F
56_1_F	56_1_R
55_0_R	55_0_F
37_1_F	37_1_R
93_0_R	93_0_F
55_1_R	55_1_F
43_0_F	43_0_R
101_0_F	101_0_R
72_1_R	72_1_F
86_1_R	86_1_F
51_0_R	51_0_F
110_0_R	110_0_F
72_0_F	72_0_R
18_1_R	18_1_F
67_0_R	67_0_F
53_0_R	53_0_F
43_1_R	43_1_F
110_0_F	110_0_R
5_0_R	5_0_F
41_0_R	41_0_F
0_0_R	0_0_F
23_1_F	23_1_R
63_0_R	63_0_F
20_0_R	20_0_F
23_0_R	23_0_F
110_1_F	110_1_R
65_1_F	65_1_R
70_1_R	70_1_F
52_0_R	52_0_F
56_0_R	56_0_F
6_0_F	6_0_R
38_0_R	38_0_F
93_0_F	93_0_R
59_0_F	59_0_R
38_0_F	38_0_R
16_1_R	16_1_F
1_0_R	1_0_F
103_1_F	103_1_R
73_1_F	73_1_R
39_0_R	39_0_F
38_1_F	38_1_R
77_0_F	77_0_R
55_1_F	55_1_R
74_0_F	74_0_R
72_1_F	72_1_R
86_0_F	86_0_R
56_0_F	56_0_R
70_0_F	70_0_R
59_0_R	59_0_F
51_2_R	51_2_F
103_1_R	103_1_F
37_2_F	37_2_R
95_0_R	95_0_F
38_1_R	38_1_F
0_0_F	0_0_R
5_1_F	5_1_R
59_1_R	59_1_F
16_0_F	16_0_R
6_1_F	6_1_R
43_1_F	43_1_R
68_1_R	68_1_F
70_0_R	70_0_F
20_0_F	20_0_R
86_1_F	86_1_R
64_0_R	64_0_F
103_0_F	103_0_R
51_1_R	51_1_F
1_0_F	1_0_R
23_1_R	23_1_F
101_1_R	101_1_F
37_1_R	37_1_F
73_1_R	73_1_F
23_0_F	23_0_R
64_1_R	64_1_F
59_1_F	59_1_R
19_0_R	19_0_F
22_0_R	22_0_F
95_1_F	95_1_R
64_0_F	64_0_R
72_0_R	72_0_F
51_1_F	51_1_R
95_1_R	95_1_F
50_0_F	50_0_R
18_1_F	18_1_R
65_1_R	65_1_F
51_0_F	51_0_R
21_0_R	21_0_F
67_0_F	67_0_R
22_0_F	22_0_R
52_0_F	52_0_R
63_0_F	63_0_R
101_1_F	101_1_R
6_1_R	6_1_F
18_0_F	18_0_R
37_0_F	37_0_R
73_0_R	73_0_F
68_0_F	68_0_R
53_0_F	53_0_R
25_1_F	25_1_R
5_0_F	5_0_R
37_2_R	37_2_F
37_0_R	37_0_F
5_1_R	5_1_F
77_0_R	77_0_F
16_0_R	16_0_F
68_1_F	68_1_R
74_0_R	74_0_F
63_1_F	63_1_R
6_0_R	6_0_F
19_0_F	19_0_R
103_0_R	103_0_F
64_1_F	64_1_R
18_0_R	18_0_F
25_1_R	25_1_F
63_1_R	63_1_F
67_1_R	67_1_F
41_1_F	41_1_R
95_0_F	95_0_R
65_0_R	65_0_F
86_0_R	86_0_F
83_0_R	83_0_F
65_0_F	65_0_R
73_0_F	73_0_R
56_1_R	56_1_F
52_1_F	52_1_R
82_0_R	82_0_F
;
set Edges :=
51_2_F	37_1_F	overlaps
51_2_F	37_0_F	overlaps
51_2_F	37_2_F	overlaps
110_1_R	25_1_F	links
110_1_R	25_0_F	links
110_1_R	18_0_R	overlaps
110_1_R	18_1_R	overlaps
39_0_F	37_2_R	overlaps
39_0_F	37_1_R	overlaps
39_0_F	37_0_R	overlaps
55_0_F	23_1_F	overlaps
55_0_F	43_1_R	links
55_0_F	101_1_R	overlaps
55_0_F	23_0_F	overlaps
55_0_F	43_0_R	links
55_0_F	101_0_R	overlaps
16_1_F	59_0_R	links
16_1_F	103_1_R	overlaps
16_1_F	103_0_R	overlaps
16_1_F	59_1_R	links
101_0_R	23_0_F	overlaps
101_0_R	23_1_F	overlaps
25_0_R	18_0_F	links
25_0_R	110_0_F	links
25_0_R	23_0_R	overlaps
25_0_R	110_1_F	links
25_0_R	23_1_R	overlaps
25_0_R	18_1_F	links
41_1_R	59_0_F	overlaps
41_1_R	59_1_F	overlaps
21_0_F	0_0_R	overlaps
21_0_F	0_0_R	links
21_0_F	1_0_F	links
68_0_R	73_0_F	links
68_0_R	6_0_R	overlaps
68_0_R	73_1_F	links
68_0_R	6_1_R	overlaps
25_0_F	73_0_R	links
25_0_F	86_1_R	links
25_0_F	86_0_R	links
25_0_F	59_0_R	overlaps
25_0_F	73_1_R	links
25_0_F	59_1_R	overlaps
83_0_F	77_0_F	links
83_0_F	82_0_R	overlaps
83_0_F	82_0_R	links
82_0_F	83_0_R	overlaps
82_0_F	83_0_R	links
41_0_F	43_0_R	overlaps
41_0_F	43_1_R	overlaps
43_0_R	63_0_R	links
43_0_R	63_1_R	links
43_0_R	86_1_R	overlaps
43_0_R	86_0_R	overlaps
70_1_F	77_0_R	overlaps
70_1_F	74_0_F	overlaps
70_1_F	38_1_R	links
70_1_F	38_0_R	links
70_1_F	82_0_F	links
67_1_F	65_1_R	overlaps
67_1_F	65_0_R	overlaps
67_1_F	19_0_R	links
67_1_F	22_0_F	links
50_0_R	110_0_R	links
50_0_R	18_0_R	links
50_0_R	110_1_R	links
50_0_R	16_1_F	links
50_0_R	74_0_R	overlaps
50_0_R	16_0_F	links
50_0_R	18_1_R	links
52_1_R	51_0_F	overlaps
52_1_R	50_0_R	links
52_1_R	51_1_F	overlaps
52_1_R	51_2_F	overlaps
52_1_R	83_0_F	links
56_1_F	55_0_F	overlaps
56_1_F	55_1_F	overlaps
55_0_R	77_0_R	links
55_0_R	74_0_F	links
55_0_R	56_0_R	overlaps
55_0_R	56_1_R	overlaps
37_1_F	38_1_F	overlaps
37_1_F	38_0_F	overlaps
37_1_F	39_0_R	overlaps
93_0_R	20_0_F	overlaps
93_0_R	20_0_F	links
55_1_R	77_0_R	links
55_1_R	74_0_F	links
55_1_R	56_0_R	overlaps
55_1_R	56_1_R	overlaps
43_0_F	41_0_R	overlaps
43_0_F	55_1_R	links
43_0_F	55_0_R	links
43_0_F	41_1_R	overlaps
101_0_F	55_1_R	overlaps
101_0_F	55_0_R	overlaps
72_1_R	70_0_F	overlaps
72_1_R	70_1_F	overlaps
86_1_R	6_1_F	links
86_1_R	73_0_R	overlaps
86_1_R	6_0_F	links
86_1_R	73_1_R	overlaps
51_0_R	52_1_F	overlaps
51_0_R	53_0_F	overlaps
51_0_R	52_0_F	overlaps
110_0_R	25_1_F	links
110_0_R	25_0_F	links
110_0_R	18_0_R	overlaps
110_0_R	18_1_R	overlaps
72_0_F	110_0_R	overlaps
72_0_F	110_1_R	overlaps
18_1_R	25_1_F	links
18_1_R	25_0_F	links
18_1_R	16_0_F	overlaps
18_1_R	16_1_F	overlaps
67_0_R	95_0_F	overlaps
67_0_R	63_0_F	links
67_0_R	63_1_F	links
67_0_R	95_1_F	overlaps
53_0_R	51_0_F	overlaps
53_0_R	51_2_F	overlaps
53_0_R	51_1_F	overlaps
43_1_R	63_0_R	links
43_1_R	63_1_R	links
43_1_R	86_1_R	overlaps
43_1_R	86_0_R	overlaps
110_0_F	72_1_R	overlaps
110_0_F	50_0_F	links
110_0_F	82_0_F	links
110_0_F	72_0_R	overlaps
5_0_R	6_1_F	overlaps
5_0_R	6_0_F	overlaps
41_0_R	59_0_F	overlaps
41_0_R	59_1_F	overlaps
0_0_R	1_0_F	overlaps
0_0_R	1_0_F	links
23_1_F	25_1_F	overlaps
23_1_F	25_0_F	overlaps
23_1_F	86_1_R	links
23_1_F	86_0_R	links
63_0_R	67_1_F	links
63_0_R	67_0_F	links
63_0_R	5_0_R	overlaps
63_0_R	95_0_R	links
63_0_R	95_1_R	links
63_0_R	5_1_R	overlaps
20_0_R	93_0_F	overlaps
20_0_R	93_0_F	links
20_0_R	1_0_R	links
23_0_R	101_0_F	overlaps
23_0_R	70_0_F	links
23_0_R	55_0_R	overlaps
23_0_R	55_1_R	overlaps
23_0_R	101_1_F	overlaps
23_0_R	70_1_F	links
110_1_F	72_1_R	overlaps
110_1_F	50_0_F	links
110_1_F	82_0_F	links
110_1_F	72_0_R	overlaps
65_1_F	6_0_R	links
65_1_F	67_1_R	overlaps
65_1_F	6_1_R	links
65_1_F	67_0_R	overlaps
70_1_R	23_0_F	links
70_1_R	23_1_F	links
70_1_R	72_1_F	overlaps
70_1_R	72_0_F	overlaps
52_0_R	51_0_F	overlaps
52_0_R	50_0_R	links
52_0_R	51_1_F	overlaps
52_0_R	51_2_F	overlaps
52_0_R	83_0_F	links
56_0_R	103_0_F	overlaps
56_0_R	103_1_F	overlaps
6_0_F	65_1_R	links
6_0_F	65_0_R	links
6_0_F	68_0_F	overlaps
6_0_F	64_1_R	links
6_0_F	64_0_R	links
6_0_F	68_1_F	overlaps
38_0_R	37_2_R	overlaps
38_0_R	37_1_R	overlaps
38_0_R	83_0_F	links
38_0_R	37_0_R	overlaps
93_0_F	1_0_R	overlaps
93_0_F	1_0_R	links
59_0_F	16_1_R	links
59_0_F	16_0_R	links
59_0_F	25_0_R	overlaps
59_0_F	25_1_R	overlaps
38_0_F	74_0_R	links
38_0_F	50_0_R	overlaps
38_0_F	70_1_R	links
38_0_F	70_0_R	links
38_0_F	39_0_F	overlaps
16_1_R	18_0_F	overlaps
16_1_R	77_0_R	links
16_1_R	74_0_F	links
16_1_R	50_0_F	links
16_1_R	18_1_F	overlaps
1_0_R	0_0_F	overlaps
1_0_R	0_0_F	links
1_0_R	21_0_R	links
103_1_F	16_1_R	overlaps
103_1_F	16_0_R	overlaps
73_1_F	59_0_F	links
73_1_F	25_1_R	links
73_1_F	86_1_F	overlaps
73_1_F	25_0_R	links
73_1_F	86_0_F	overlaps
73_1_F	59_1_F	links
39_0_R	38_1_R	overlaps
39_0_R	38_0_R	overlaps
38_1_F	74_0_R	links
38_1_F	50_0_R	overlaps
38_1_F	70_1_R	links
38_1_F	70_0_R	links
38_1_F	39_0_F	overlaps
77_0_F	18_0_R	links
77_0_F	70_0_R	overlaps
77_0_F	16_1_F	links
77_0_F	55_0_F	links
77_0_F	55_1_F	links
77_0_F	16_0_F	links
77_0_F	70_1_R	overlaps
77_0_F	18_1_R	links
55_1_F	23_1_F	overlaps
55_1_F	43_1_R	links
55_1_F	101_1_R	overlaps
55_1_F	23_0_F	overlaps
55_1_F	43_0_R	links
55_1_F	101_0_R	overlaps
74_0_F	52_1_R	links
74_0_F	50_0_F	overlaps
74_0_F	38_1_R	links
74_0_F	38_0_R	links
74_0_F	52_0_R	links
72_1_F	110_0_R	overlaps
72_1_F	110_1_R	overlaps
86_0_F	23_0_R	links
86_0_F	25_1_R	links
86_0_F	23_1_R	links
86_0_F	43_1_F	overlaps
86_0_F	25_0_R	links
86_0_F	43_0_F	overlaps
56_0_F	55_0_F	overlaps
56_0_F	55_1_F	overlaps
70_0_F	77_0_R	overlaps
70_0_F	74_0_F	overlaps
70_0_F	38_1_R	links
70_0_F	38_0_R	links
70_0_F	82_0_F	links
59_0_R	63_0_R	links
59_0_R	41_1_F	overlaps
59_0_R	41_0_F	overlaps
59_0_R	73_0_R	links
59_0_R	73_1_R	links
59_0_R	63_1_R	links
51_2_R	52_1_F	overlaps
51_2_R	53_0_F	overlaps
51_2_R	52_0_F	overlaps
103_1_R	56_1_F	overlaps
103_1_R	56_0_F	overlaps
37_2_F	38_1_F	overlaps
37_2_F	38_0_F	overlaps
37_2_F	39_0_R	overlaps
95_0_R	67_1_F	overlaps
95_0_R	67_0_F	overlaps
95_0_R	19_0_R	links
95_0_R	22_0_F	links
38_1_R	37_2_R	overlaps
38_1_R	37_1_R	overlaps
38_1_R	83_0_F	links
38_1_R	37_0_R	overlaps
0_0_F	22_0_R	links
0_0_F	21_0_R	overlaps
0_0_F	21_0_R	links
5_1_F	63_0_F	overlaps
5_1_F	63_1_F	overlaps
59_1_R	63_0_R	links
59_1_R	41_1_F	overlaps
59_1_R	41_0_F	overlaps
59_1_R	73_0_R	links
59_1_R	73_1_R	links
59_1_R	63_1_R	links
16_0_F	59_0_R	links
16_0_F	103_1_R	overlaps
16_0_F	103_0_R	overlaps
16_0_F	59_1_R	links
6_1_F	65_1_R	links
6_1_F	65_0_R	links
6_1_F	68_0_F	overlaps
6_1_F	64_1_R	links
6_1_F	64_0_R	links
6_1_F	68_1_F	overlaps
43_1_F	41_0_R	overlaps
43_1_F	55_1_R	links
43_1_F	55_0_R	links
43_1_F	41_1_R	overlaps
68_1_R	73_0_F	links
68_1_R	6_0_R	overlaps
68_1_R	73_1_F	links
68_1_R	6_1_R	overlaps
70_0_R	23_0_F	links
70_0_R	23_1_F	links
70_0_R	72_1_F	overlaps
70_0_R	72_0_F	overlaps
20_0_F	65_0_F	links
20_0_F	64_0_F	links
20_0_F	64_1_F	links
20_0_F	19_0_F	overlaps
20_0_F	19_0_F	links
20_0_F	65_1_F	links
86_1_F	23_0_R	links
86_1_F	25_1_R	links
86_1_F	23_1_R	links
86_1_F	43_1_F	overlaps
86_1_F	25_0_R	links
86_1_F	43_0_F	overlaps
64_0_R	20_0_R	links
64_0_R	19_0_R	overlaps
64_0_R	22_0_F	overlaps
64_0_R	22_0_F	links
103_0_F	16_1_R	overlaps
103_0_F	16_0_R	overlaps
51_1_R	52_1_F	overlaps
51_1_R	53_0_F	overlaps
51_1_R	52_0_F	overlaps
1_0_F	20_0_F	links
1_0_F	93_0_R	overlaps
1_0_F	93_0_R	links
23_1_R	101_0_F	overlaps
23_1_R	70_0_F	links
23_1_R	55_0_R	overlaps
23_1_R	55_1_R	overlaps
23_1_R	101_1_F	overlaps
23_1_R	70_1_F	links
101_1_R	23_0_F	overlaps
101_1_R	23_1_F	overlaps
37_1_R	51_2_R	overlaps
37_1_R	51_1_R	overlaps
37_1_R	51_0_R	overlaps
73_1_R	63_0_R	overlaps
73_1_R	68_0_F	links
73_1_R	95_0_R	links
73_1_R	63_1_R	overlaps
73_1_R	95_1_R	links
73_1_R	68_1_F	links
23_0_F	25_1_F	overlaps
23_0_F	25_0_F	overlaps
23_0_F	86_1_R	links
23_0_F	86_0_R	links
64_1_R	20_0_R	links
64_1_R	19_0_R	overlaps
64_1_R	22_0_F	overlaps
64_1_R	22_0_F	links
59_1_F	16_1_R	links
59_1_F	16_0_R	links
59_1_F	25_0_R	overlaps
59_1_F	25_1_R	overlaps
19_0_R	20_0_R	overlaps
19_0_R	20_0_R	links
22_0_R	95_0_F	links
22_0_R	68_0_R	links
22_0_R	95_1_F	links
22_0_R	64_0_F	overlaps
22_0_R	64_0_F	links
22_0_R	64_1_F	overlaps
22_0_R	64_1_F	links
22_0_R	65_1_F	links
22_0_R	68_1_R	links
22_0_R	67_1_R	links
22_0_R	67_0_R	links
22_0_R	65_0_F	links
95_1_F	68_0_R	overlaps
95_1_F	68_1_R	overlaps
95_1_F	73_1_F	links
95_1_F	63_0_F	links
95_1_F	63_1_F	links
95_1_F	73_0_F	links
64_0_F	65_0_F	overlaps
64_0_F	6_0_R	links
64_0_F	65_1_F	overlaps
64_0_F	6_1_R	links
72_0_R	70_0_F	overlaps
72_0_R	70_1_F	overlaps
51_1_F	37_1_F	overlaps
51_1_F	37_0_F	overlaps
51_1_F	37_2_F	overlaps
95_1_R	67_1_F	overlaps
95_1_R	67_0_F	overlaps
95_1_R	19_0_R	links
95_1_R	22_0_F	links
50_0_F	38_1_R	overlaps
50_0_F	52_0_F	links
50_0_F	52_1_F	links
50_0_F	38_0_R	overlaps
50_0_F	83_0_F	links
18_1_F	77_0_R	links
18_1_F	110_0_F	overlaps
18_1_F	110_1_F	overlaps
18_1_F	50_0_F	links
18_1_F	82_0_F	links
65_1_R	20_0_R	links
65_1_R	64_0_R	overlaps
65_1_R	22_0_F	links
65_1_R	64_1_R	overlaps
51_0_F	37_1_F	overlaps
51_0_F	37_0_F	overlaps
51_0_F	37_2_F	overlaps
21_0_R	22_0_R	overlaps
21_0_R	22_0_R	links
67_0_F	65_1_R	overlaps
67_0_F	65_0_R	overlaps
67_0_F	19_0_R	links
67_0_F	22_0_F	links
22_0_F	21_0_F	overlaps
22_0_F	21_0_F	links
22_0_F	0_0_R	links
52_0_F	53_0_R	overlaps
52_0_F	74_0_R	links
52_0_F	83_0_F	overlaps
52_0_F	83_0_F	links
63_0_F	59_0_F	links
63_0_F	59_1_F	links
63_0_F	73_1_F	overlaps
63_0_F	73_0_F	overlaps
63_0_F	43_1_F	links
63_0_F	43_0_F	links
101_1_F	55_1_R	overlaps
101_1_F	55_0_R	overlaps
6_1_R	86_1_F	links
6_1_R	5_1_F	overlaps
6_1_R	86_0_F	links
6_1_R	5_0_F	overlaps
18_0_F	77_0_R	links
18_0_F	110_0_F	overlaps
18_0_F	110_1_F	overlaps
18_0_F	50_0_F	links
18_0_F	82_0_F	links
37_0_F	38_1_F	overlaps
37_0_F	38_0_F	overlaps
37_0_F	39_0_R	overlaps
73_0_R	63_0_R	overlaps
73_0_R	68_0_F	links
73_0_R	95_0_R	links
73_0_R	63_1_R	overlaps
73_0_R	95_1_R	links
73_0_R	68_1_F	links
68_0_F	95_0_R	overlaps
68_0_F	95_1_R	overlaps
68_0_F	19_0_R	links
68_0_F	22_0_F	links
53_0_F	52_1_R	overlaps
53_0_F	52_0_R	overlaps
25_1_F	73_0_R	links
25_1_F	86_1_R	links
25_1_F	86_0_R	links
25_1_F	59_0_R	overlaps
25_1_F	73_1_R	links
25_1_F	59_1_R	overlaps
5_0_F	63_0_F	overlaps
5_0_F	63_1_F	overlaps
37_2_R	51_2_R	overlaps
37_2_R	51_1_R	overlaps
37_2_R	51_0_R	overlaps
37_0_R	51_2_R	overlaps
37_0_R	51_1_R	overlaps
37_0_R	51_0_R	overlaps
5_1_R	6_1_F	overlaps
5_1_R	6_0_F	overlaps
77_0_R	83_0_R	links
77_0_R	82_0_F	overlaps
77_0_R	82_0_F	links
16_0_R	18_0_F	overlaps
16_0_R	77_0_R	links
16_0_R	74_0_F	links
16_0_R	50_0_F	links
16_0_R	18_1_F	overlaps
68_1_F	95_0_R	overlaps
68_1_F	95_1_R	overlaps
68_1_F	19_0_R	links
68_1_F	22_0_F	links
74_0_R	70_0_R	overlaps
74_0_R	16_1_F	links
74_0_R	55_0_F	links
74_0_R	70_1_R	overlaps
74_0_R	16_0_F	links
74_0_R	55_1_F	links
63_1_F	59_0_F	links
63_1_F	59_1_F	links
63_1_F	73_1_F	overlaps
63_1_F	73_0_F	overlaps
63_1_F	43_1_F	links
63_1_F	43_0_F	links
6_0_R	86_1_F	links
6_0_R	5_1_F	overlaps
6_0_R	86_0_F	links
6_0_R	5_0_F	overlaps
19_0_F	95_0_F	links
19_0_F	68_0_R	links
19_0_F	95_1_F	links
19_0_F	67_1_R	links
19_0_F	64_1_F	overlaps
19_0_F	68_1_R	links
19_0_F	64_0_F	overlaps
19_0_F	67_0_R	links
103_0_R	56_1_F	overlaps
103_0_R	56_0_F	overlaps
64_1_F	65_0_F	overlaps
64_1_F	6_0_R	links
64_1_F	65_1_F	overlaps
64_1_F	6_1_R	links
18_0_R	25_1_F	links
18_0_R	25_0_F	links
18_0_R	16_0_F	overlaps
18_0_R	16_1_F	overlaps
25_1_R	18_0_F	links
25_1_R	110_0_F	links
25_1_R	23_0_R	overlaps
25_1_R	110_1_F	links
25_1_R	23_1_R	overlaps
25_1_R	18_1_F	links
63_1_R	67_1_F	links
63_1_R	67_0_F	links
63_1_R	5_0_R	overlaps
63_1_R	95_0_R	links
63_1_R	95_1_R	links
63_1_R	5_1_R	overlaps
67_1_R	95_0_F	overlaps
67_1_R	63_0_F	links
67_1_R	63_1_F	links
67_1_R	95_1_F	overlaps
41_1_F	43_0_R	overlaps
41_1_F	43_1_R	overlaps
95_0_F	68_0_R	overlaps
95_0_F	68_1_R	overlaps
95_0_F	73_1_F	links
95_0_F	63_0_F	links
95_0_F	63_1_F	links
95_0_F	73_0_F	links
65_0_R	20_0_R	links
65_0_R	64_0_R	overlaps
65_0_R	22_0_F	links
65_0_R	64_1_R	overlaps
86_0_R	6_1_F	links
86_0_R	73_0_R	overlaps
86_0_R	6_0_F	links
86_0_R	73_1_R	overlaps
83_0_R	50_0_R	links
83_0_R	52_1_R	overlaps
83_0_R	52_1_R	links
83_0_R	52_0_F	links
83_0_R	38_1_F	links
83_0_R	52_1_F	links
83_0_R	38_0_F	links
83_0_R	52_0_R	overlaps
83_0_R	52_0_R	links
65_0_F	6_0_R	links
65_0_F	67_1_R	overlaps
65_0_F	6_1_R	links
65_0_F	67_0_R	overlaps
73_0_F	59_0_F	links
73_0_F	25_1_R	links
73_0_F	86_1_F	overlaps
73_0_F	25_0_R	links
73_0_F	86_0_F	overlaps
73_0_F	59_1_F	links
56_1_R	103_0_F	overlaps
56_1_R	103_1_F	overlaps
52_1_F	53_0_R	overlaps
52_1_F	74_0_R	links
52_1_F	83_0_F	overlaps
52_1_F	83_0_F	links
82_0_R	110_0_R	links
82_0_R	70_0_R	links
82_0_R	110_1_R	links
82_0_R	77_0_F	overlaps
82_0_R	77_0_F	links
82_0_R	70_1_R	links
82_0_R	18_1_R	links
82_0_R	18_0_R	links
;
param l :=
51_2_F	37_1_F	overlaps	116
51_2_F	37_0_F	overlaps	116
51_2_F	37_2_F	overlaps	116
110_1_R	25_1_F	links	4903
110_1_R	25_0_F	links	4903
110_1_R	18_0_R	overlaps	387
110_1_R	18_1_R	overlaps	387
39_0_F	37_2_R	overlaps	104
39_0_F	37_1_R	overlaps	104
39_0_F	37_0_R	overlaps	104
55_0_F	23_1_F	overlaps	649
55_0_F	43_1_R	links	4855
55_0_F	101_1_R	overlaps	617
55_0_F	23_0_F	overlaps	649
55_0_F	43_0_R	links	4855
55_0_F	101_0_R	overlaps	617
16_1_F	59_0_R	links	4971
16_1_F	103_1_R	overlaps	1101
16_1_F	103_0_R	overlaps	1101
16_1_F	59_1_R	links	4971
101_0_R	23_0_F	overlaps	32
101_0_R	23_1_F	overlaps	32
25_0_R	18_0_F	links	4958
25_0_R	110_0_F	links	6185
25_0_R	23_0_R	overlaps	1669
25_0_R	110_1_F	links	6185
25_0_R	23_1_R	overlaps	1669
25_0_R	18_1_F	links	4958
41_1_R	59_0_F	overlaps	322
41_1_R	59_1_F	overlaps	322
21_0_F	0_0_R	overlaps	2611
21_0_F	0_0_R	links	2753
21_0_F	1_0_F	links	6145
68_0_R	73_0_F	links	4592
68_0_R	6_0_R	overlaps	565
68_0_R	73_1_F	links	4592
68_0_R	6_1_R	overlaps	565
25_0_F	73_0_R	links	5902
25_0_F	86_1_R	links	4162
25_0_F	86_0_R	links	4162
25_0_F	59_0_R	overlaps	1669
25_0_F	73_1_R	links	5902
25_0_F	59_1_R	overlaps	1669
83_0_F	77_0_F	links	12982
83_0_F	82_0_R	overlaps	10140
83_0_F	82_0_R	links	10292
82_0_F	83_0_R	overlaps	2703
82_0_F	83_0_R	links	2864
41_0_F	43_0_R	overlaps	322
41_0_F	43_1_R	overlaps	322
43_0_R	63_0_R	links	3748
43_0_R	63_1_R	links	3748
43_0_R	86_1_R	overlaps	808
43_0_R	86_0_R	overlaps	808
70_1_F	77_0_R	overlaps	450
70_1_F	74_0_F	overlaps	450
70_1_F	38_1_R	links	4673
70_1_F	38_0_R	links	4673
70_1_F	82_0_F	links	3197
67_1_F	65_1_R	overlaps	1029
67_1_F	65_0_R	overlaps	1029
67_1_F	19_0_R	links	2923
67_1_F	22_0_F	links	2939
50_0_R	110_0_R	links	4915
50_0_R	18_0_R	links	5380
50_0_R	110_1_R	links	4915
50_0_R	16_1_F	links	6541
50_0_R	74_0_R	overlaps	2504
50_0_R	16_0_F	links	6541
50_0_R	18_1_R	links	5380
52_1_R	51_0_F	overlaps	356
52_1_R	50_0_R	links	2686
52_1_R	51_1_F	overlaps	356
52_1_R	51_2_F	overlaps	356
52_1_R	83_0_F	links	1838
56_1_F	55_0_F	overlaps	150
56_1_F	55_1_F	overlaps	150
55_0_R	77_0_R	links	4723
55_0_R	74_0_F	links	4692
55_0_R	56_0_R	overlaps	617
55_0_R	56_1_R	overlaps	617
37_1_F	38_1_F	overlaps	126
37_1_F	38_0_F	overlaps	126
37_1_F	39_0_R	overlaps	126
93_0_R	20_0_F	overlaps	3572
93_0_R	20_0_F	links	3718
55_1_R	77_0_R	links	4723
55_1_R	74_0_F	links	4692
55_1_R	56_0_R	overlaps	617
55_1_R	56_1_R	overlaps	617
43_0_F	41_0_R	overlaps	808
43_0_F	55_1_R	links	5009
43_0_F	55_0_R	links	5009
43_0_F	41_1_R	overlaps	808
101_0_F	55_1_R	overlaps	32
101_0_F	55_0_R	overlaps	32
72_1_R	70_0_F	overlaps	244
72_1_R	70_1_F	overlaps	244
86_1_R	6_1_F	links	4844
86_1_R	73_0_R	overlaps	1821
86_1_R	6_0_F	links	4844
86_1_R	73_1_R	overlaps	1821
51_0_R	52_1_F	overlaps	116
51_0_R	53_0_F	overlaps	116
51_0_R	52_0_F	overlaps	116
110_0_R	25_1_F	links	4903
110_0_R	25_0_F	links	4903
110_0_R	18_0_R	overlaps	387
110_0_R	18_1_R	overlaps	387
72_0_F	110_0_R	overlaps	244
72_0_F	110_1_R	overlaps	244
18_1_R	25_1_F	links	4542
18_1_R	25_0_F	links	4542
18_1_R	16_0_F	overlaps	1253
18_1_R	16_1_F	overlaps	1253
67_0_R	95_0_F	overlaps	1029
67_0_R	63_0_F	links	5332
67_0_R	63_1_F	links	5332
67_0_R	95_1_F	overlaps	1029
53_0_R	51_0_F	overlaps	107
53_0_R	51_2_F	overlaps	107
53_0_R	51_1_F	overlaps	107
43_1_R	63_0_R	links	3748
43_1_R	63_1_R	links	3748
43_1_R	86_1_R	overlaps	808
43_1_R	86_0_R	overlaps	808
110_0_F	72_1_R	overlaps	387
110_0_F	50_0_F	links	2768
110_0_F	82_0_F	links	3845
110_0_F	72_0_R	overlaps	387
5_0_R	6_1_F	overlaps	236
5_0_R	6_0_F	overlaps	236
41_0_R	59_0_F	overlaps	322
41_0_R	59_1_F	overlaps	322
0_0_R	1_0_F	overlaps	3384
0_0_R	1_0_F	links	3515
23_1_F	25_1_F	overlaps	880
23_1_F	25_0_F	overlaps	880
23_1_F	86_1_R	links	4987
23_1_F	86_0_R	links	4987
63_0_R	67_1_F	links	5941
63_0_R	67_0_F	links	5941
63_0_R	5_0_R	overlaps	1622
63_0_R	95_0_R	links	4634
63_0_R	95_1_R	links	4634
63_0_R	5_1_R	overlaps	1622
20_0_R	93_0_F	overlaps	20760
20_0_R	93_0_F	links	20906
20_0_R	1_0_R	links	24465
23_0_R	101_0_F	overlaps	880
23_0_R	70_0_F	links	5154
23_0_R	55_0_R	overlaps	912
23_0_R	55_1_R	overlaps	912
23_0_R	101_1_F	overlaps	880
23_0_R	70_1_F	links	5154
110_1_F	72_1_R	overlaps	387
110_1_F	50_0_F	links	2768
110_1_F	82_0_F	links	3845
110_1_F	72_0_R	overlaps	387
65_1_F	6_0_R	links	3780
65_1_F	67_1_R	overlaps	753
65_1_F	6_1_R	links	3780
65_1_F	67_0_R	overlaps	753
70_1_R	23_0_F	links	4724
70_1_R	23_1_F	links	4724
70_1_R	72_1_F	overlaps	450
70_1_R	72_0_F	overlaps	450
52_0_R	51_0_F	overlaps	356
52_0_R	50_0_R	links	2686
52_0_R	51_1_F	overlaps	356
52_0_R	51_2_F	overlaps	356
52_0_R	83_0_F	links	1838
56_0_R	103_0_F	overlaps	150
56_0_R	103_1_F	overlaps	150
6_0_F	65_1_R	links	5101
6_0_F	65_0_R	links	5101
6_0_F	68_0_F	overlaps	2074
6_0_F	64_1_R	links	5841
6_0_F	64_0_R	links	5841
6_0_F	68_1_F	overlaps	2074
38_0_R	37_2_R	overlaps	459
38_0_R	37_1_R	overlaps	459
38_0_R	83_0_F	links	2643
38_0_R	37_0_R	overlaps	459
93_0_F	1_0_R	overlaps	3572
93_0_F	1_0_R	links	3754
59_0_F	16_1_R	links	5051
59_0_F	16_0_R	links	5051
59_0_F	25_0_R	overlaps	1176
59_0_F	25_1_R	overlaps	1176
38_0_F	74_0_R	links	4561
38_0_F	50_0_R	overlaps	459
38_0_F	70_1_R	links	4725
38_0_F	70_0_R	links	4725
38_0_F	39_0_F	overlaps	459
16_1_R	18_0_F	overlaps	1101
16_1_R	77_0_R	links	3538
16_1_R	74_0_F	links	3487
16_1_R	50_0_F	links	5138
16_1_R	18_1_F	overlaps	1101
1_0_R	0_0_F	overlaps	41148
1_0_R	0_0_F	links	41309
1_0_R	21_0_R	links	44725
103_1_F	16_1_R	overlaps	398
103_1_F	16_0_R	overlaps	398
73_1_F	59_0_F	links	4084
73_1_F	25_1_R	links	5268
73_1_F	86_1_F	overlaps	1035
73_1_F	25_0_R	links	5268
73_1_F	86_0_F	overlaps	1035
73_1_F	59_1_F	links	4084
39_0_R	38_1_R	overlaps	104
39_0_R	38_0_R	overlaps	104
38_1_F	74_0_R	links	4561
38_1_F	50_0_R	overlaps	459
38_1_F	70_1_R	links	4725
38_1_F	70_0_R	links	4725
38_1_F	39_0_F	overlaps	459
77_0_F	18_0_R	links	3862
77_0_F	70_0_R	overlaps	2664
77_0_F	16_1_F	links	5101
77_0_F	55_0_F	links	6770
77_0_F	55_1_F	links	6770
77_0_F	16_0_F	links	5101
77_0_F	70_1_R	overlaps	2664
77_0_F	18_1_R	links	3862
55_1_F	23_1_F	overlaps	649
55_1_F	43_1_R	links	4855
55_1_F	101_1_R	overlaps	617
55_1_F	23_0_F	overlaps	649
55_1_F	43_0_R	links	4855
55_1_F	101_0_R	overlaps	617
74_0_F	52_1_R	links	5059
74_0_F	50_0_F	overlaps	1618
74_0_F	38_1_R	links	5720
74_0_F	38_0_R	links	5720
74_0_F	52_0_R	links	5059
72_1_F	110_0_R	overlaps	244
72_1_F	110_1_R	overlaps	244
86_0_F	23_0_R	links	5932
86_0_F	25_1_R	links	4264
86_0_F	23_1_R	links	5932
86_0_F	43_1_F	overlaps	1821
86_0_F	25_0_R	links	4264
86_0_F	43_0_F	overlaps	1821
56_0_F	55_0_F	overlaps	150
56_0_F	55_1_F	overlaps	150
70_0_F	77_0_R	overlaps	450
70_0_F	74_0_F	overlaps	450
70_0_F	38_1_R	links	4673
70_0_F	38_0_R	links	4673
70_0_F	82_0_F	links	3197
59_0_R	63_0_R	links	5309
59_0_R	41_1_F	overlaps	1176
59_0_R	41_0_F	overlaps	1176
59_0_R	73_0_R	links	4225
59_0_R	73_1_R	links	4225
59_0_R	63_1_R	links	5309
51_2_R	52_1_F	overlaps	116
51_2_R	53_0_F	overlaps	116
51_2_R	52_0_F	overlaps	116
103_1_R	56_1_F	overlaps	398
103_1_R	56_0_F	overlaps	398
37_2_F	38_1_F	overlaps	126
37_2_F	38_0_F	overlaps	126
37_2_F	39_0_R	overlaps	126
95_0_R	67_1_F	overlaps	1311
95_0_R	67_0_F	overlaps	1311
95_0_R	19_0_R	links	4624
95_0_R	22_0_F	links	4573
38_1_R	37_2_R	overlaps	459
38_1_R	37_1_R	overlaps	459
38_1_R	83_0_F	links	2643
38_1_R	37_0_R	overlaps	459
0_0_F	22_0_R	links	6144
0_0_F	21_0_R	overlaps	3384
0_0_F	21_0_R	links	3526
5_1_F	63_0_F	overlaps	236
5_1_F	63_1_F	overlaps	236
59_1_R	63_0_R	links	5309
59_1_R	41_1_F	overlaps	1176
59_1_R	41_0_F	overlaps	1176
59_1_R	73_0_R	links	4225
59_1_R	73_1_R	links	4225
59_1_R	63_1_R	links	5309
16_0_F	59_0_R	links	4971
16_0_F	103_1_R	overlaps	1101
16_0_F	103_0_R	overlaps	1101
16_0_F	59_1_R	links	4971
6_1_F	65_1_R	links	5101
6_1_F	65_0_R	links	5101
6_1_F	68_0_F	overlaps	2074
6_1_F	64_1_R	links	5841
6_1_F	64_0_R	links	5841
6_1_F	68_1_F	overlaps	2074
43_1_F	41_0_R	overlaps	808
43_1_F	55_1_R	links	5009
43_1_F	55_0_R	links	5009
43_1_F	41_1_R	overlaps	808
68_1_R	73_0_F	links	4592
68_1_R	6_0_R	overlaps	565
68_1_R	73_1_F	links	4592
68_1_R	6_1_R	overlaps	565
70_0_R	23_0_F	links	4724
70_0_R	23_1_F	links	4724
70_0_R	72_1_F	overlaps	450
70_0_R	72_0_F	overlaps	450
20_0_F	65_0_F	links	24857
20_0_F	64_0_F	links	23798
20_0_F	64_1_F	links	23798
20_0_F	19_0_F	overlaps	20760
20_0_F	19_0_F	links	20985
20_0_F	65_1_F	links	24857
86_1_F	23_0_R	links	5932
86_1_F	25_1_R	links	4264
86_1_F	23_1_R	links	5932
86_1_F	43_1_F	overlaps	1821
86_1_F	25_0_R	links	4264
86_1_F	43_0_F	overlaps	1821
64_0_R	20_0_R	links	4048
64_0_R	19_0_R	overlaps	1010
64_0_R	22_0_F	overlaps	1010
64_0_R	22_0_F	links	1120
103_0_F	16_1_R	overlaps	398
103_0_F	16_0_R	overlaps	398
51_1_R	52_1_F	overlaps	116
51_1_R	53_0_F	overlaps	116
51_1_R	52_0_F	overlaps	116
1_0_F	20_0_F	links	44853
1_0_F	93_0_R	overlaps	41148
1_0_F	93_0_R	links	41306
23_1_R	101_0_F	overlaps	880
23_1_R	70_0_F	links	5154
23_1_R	55_0_R	overlaps	912
23_1_R	55_1_R	overlaps	912
23_1_R	101_1_F	overlaps	880
23_1_R	70_1_F	links	5154
101_1_R	23_0_F	overlaps	32
101_1_R	23_1_F	overlaps	32
37_1_R	51_2_R	overlaps	126
37_1_R	51_1_R	overlaps	126
37_1_R	51_0_R	overlaps	126
73_1_R	63_0_R	overlaps	1035
73_1_R	68_0_F	links	5062
73_1_R	95_0_R	links	5581
73_1_R	63_1_R	overlaps	1035
73_1_R	95_1_R	links	5581
73_1_R	68_1_F	links	5062
23_0_F	25_1_F	overlaps	880
23_0_F	25_0_F	overlaps	880
23_0_F	86_1_R	links	4987
23_0_F	86_0_R	links	4987
64_1_R	20_0_R	links	4048
64_1_R	19_0_R	overlaps	1010
64_1_R	22_0_F	overlaps	1010
64_1_R	22_0_F	links	1120
59_1_F	16_1_R	links	5051
59_1_F	16_0_R	links	5051
59_1_F	25_0_R	overlaps	1176
59_1_F	25_1_R	overlaps	1176
19_0_R	20_0_R	overlaps	2858
19_0_R	20_0_R	links	2980
22_0_R	95_0_F	links	18801
22_0_R	68_0_R	links	19714
22_0_R	95_1_F	links	18801
22_0_R	64_0_F	overlaps	15486
22_0_R	64_0_F	links	15610
22_0_R	64_1_F	overlaps	15486
22_0_R	64_1_F	links	15610
22_0_R	65_1_F	links	16811
22_0_R	68_1_R	links	19714
22_0_R	67_1_R	links	17396
22_0_R	67_0_R	links	17396
22_0_R	65_0_F	links	16811
95_1_F	68_0_R	overlaps	1311
95_1_F	68_1_R	overlaps	1311
95_1_F	73_1_F	links	5895
95_1_F	63_0_F	links	4323
95_1_F	63_1_F	links	4323
95_1_F	73_0_F	links	5895
64_0_F	65_0_F	overlaps	1010
64_0_F	6_0_R	links	4801
64_0_F	65_1_F	overlaps	1010
64_0_F	6_1_R	links	4801
72_0_R	70_0_F	overlaps	244
72_0_R	70_1_F	overlaps	244
51_1_F	37_1_F	overlaps	116
51_1_F	37_0_F	overlaps	116
51_1_F	37_2_F	overlaps	116
95_1_R	67_1_F	overlaps	1311
95_1_R	67_0_F	overlaps	1311
95_1_R	19_0_R	links	4624
95_1_R	22_0_F	links	4573
50_0_F	38_1_R	overlaps	2504
50_0_F	52_0_F	links	4818
50_0_F	52_1_F	links	4818
50_0_F	38_0_R	overlaps	2504
50_0_F	83_0_F	links	5233
18_1_F	77_0_R	links	2451
18_1_F	110_0_F	overlaps	1253
18_1_F	110_1_F	overlaps	1253
18_1_F	50_0_F	links	4097
18_1_F	82_0_F	links	5107
65_1_R	20_0_R	links	4850
65_1_R	64_0_R	overlaps	753
65_1_R	22_0_F	links	1996
65_1_R	64_1_R	overlaps	753
51_0_F	37_1_F	overlaps	116
51_0_F	37_0_F	overlaps	116
51_0_F	37_2_F	overlaps	116
21_0_R	22_0_R	overlaps	2611
21_0_R	22_0_R	links	2741
67_0_F	65_1_R	overlaps	1029
67_0_F	65_0_R	overlaps	1029
67_0_F	19_0_R	links	2923
67_0_F	22_0_F	links	2939
22_0_F	21_0_F	overlaps	15486
22_0_F	21_0_F	links	15609
22_0_F	0_0_R	links	18226
52_0_F	53_0_R	overlaps	356
52_0_F	74_0_R	links	3782
52_0_F	83_0_F	overlaps	356
52_0_F	83_0_F	links	466
63_0_F	59_0_F	links	5703
63_0_F	59_1_F	links	5703
63_0_F	73_1_F	overlaps	1622
63_0_F	73_0_F	overlaps	1622
63_0_F	43_1_F	links	4562
63_0_F	43_0_F	links	4562
101_1_F	55_1_R	overlaps	32
101_1_F	55_0_R	overlaps	32
6_1_R	86_1_F	links	5106
6_1_R	5_1_F	overlaps	2074
6_1_R	86_0_F	links	5106
6_1_R	5_0_F	overlaps	2074
18_0_F	77_0_R	links	2451
18_0_F	110_0_F	overlaps	1253
18_0_F	110_1_F	overlaps	1253
18_0_F	50_0_F	links	4097
18_0_F	82_0_F	links	5107
37_0_F	38_1_F	overlaps	126
37_0_F	38_0_F	overlaps	126
37_0_F	39_0_R	overlaps	126
73_0_R	63_0_R	overlaps	1035
73_0_R	68_0_F	links	5062
73_0_R	95_0_R	links	5581
73_0_R	63_1_R	overlaps	1035
73_0_R	95_1_R	links	5581
73_0_R	68_1_F	links	5062
68_0_F	95_0_R	overlaps	565
68_0_F	95_1_R	overlaps	565
68_0_F	19_0_R	links	4757
68_0_F	22_0_F	links	4793
53_0_F	52_1_R	overlaps	107
53_0_F	52_0_R	overlaps	107
25_1_F	73_0_R	links	5902
25_1_F	86_1_R	links	4162
25_1_F	86_0_R	links	4162
25_1_F	59_0_R	overlaps	1669
25_1_F	73_1_R	links	5902
25_1_F	59_1_R	overlaps	1669
5_0_F	63_0_F	overlaps	236
5_0_F	63_1_F	overlaps	236
37_2_R	51_2_R	overlaps	126
37_2_R	51_1_R	overlaps	126
37_2_R	51_0_R	overlaps	126
37_0_R	51_2_R	overlaps	126
37_0_R	51_1_R	overlaps	126
37_0_R	51_0_R	overlaps	126
5_1_R	6_1_F	overlaps	236
5_1_R	6_0_F	overlaps	236
77_0_R	83_0_R	links	5506
77_0_R	82_0_F	overlaps	2664
77_0_R	82_0_F	links	2797
16_0_R	18_0_F	overlaps	1101
16_0_R	77_0_R	links	3538
16_0_R	74_0_F	links	3487
16_0_R	50_0_F	links	5138
16_0_R	18_1_F	overlaps	1101
68_1_F	95_0_R	overlaps	565
68_1_F	95_1_R	overlaps	565
68_1_F	19_0_R	links	4757
68_1_F	22_0_F	links	4793
74_0_R	70_0_R	overlaps	1618
74_0_R	16_1_F	links	4004
74_0_R	55_0_F	links	5693
74_0_R	70_1_R	overlaps	1618
74_0_R	16_0_F	links	4004
74_0_R	55_1_F	links	5693
63_1_F	59_0_F	links	5703
63_1_F	59_1_F	links	5703
63_1_F	73_1_F	overlaps	1622
63_1_F	73_0_F	overlaps	1622
63_1_F	43_1_F	links	4562
63_1_F	43_0_F	links	4562
6_0_R	86_1_F	links	5106
6_0_R	5_1_F	overlaps	2074
6_0_R	86_0_F	links	5106
6_0_R	5_0_F	overlaps	2074
19_0_F	95_0_F	links	6171
19_0_F	68_0_R	links	7050
19_0_F	95_1_F	links	6171
19_0_F	67_1_R	links	4752
19_0_F	64_1_F	overlaps	2858
19_0_F	68_1_R	links	7050
19_0_F	64_0_F	overlaps	2858
19_0_F	67_0_R	links	4752
103_0_R	56_1_F	overlaps	398
103_0_R	56_0_F	overlaps	398
64_1_F	65_0_F	overlaps	1010
64_1_F	6_0_R	links	4801
64_1_F	65_1_F	overlaps	1010
64_1_F	6_1_R	links	4801
18_0_R	25_1_F	links	4542
18_0_R	25_0_F	links	4542
18_0_R	16_0_F	overlaps	1253
18_0_R	16_1_F	overlaps	1253
25_1_R	18_0_F	links	4958
25_1_R	110_0_F	links	6185
25_1_R	23_0_R	overlaps	1669
25_1_R	110_1_F	links	6185
25_1_R	23_1_R	overlaps	1669
25_1_R	18_1_F	links	4958
63_1_R	67_1_F	links	5941
63_1_R	67_0_F	links	5941
63_1_R	5_0_R	overlaps	1622
63_1_R	95_0_R	links	4634
63_1_R	95_1_R	links	4634
63_1_R	5_1_R	overlaps	1622
67_1_R	95_0_F	overlaps	1029
67_1_R	63_0_F	links	5332
67_1_R	63_1_F	links	5332
67_1_R	95_1_F	overlaps	1029
41_1_F	43_0_R	overlaps	322
41_1_F	43_1_R	overlaps	322
95_0_F	68_0_R	overlaps	1311
95_0_F	68_1_R	overlaps	1311
95_0_F	73_1_F	links	5895
95_0_F	63_0_F	links	4323
95_0_F	63_1_F	links	4323
95_0_F	73_0_F	links	5895
65_0_R	20_0_R	links	4850
65_0_R	64_0_R	overlaps	753
65_0_R	22_0_F	links	1996
65_0_R	64_1_R	overlaps	753
86_0_R	6_1_F	links	4844
86_0_R	73_0_R	overlaps	1821
86_0_R	6_0_F	links	4844
86_0_R	73_1_R	overlaps	1821
83_0_R	50_0_R	links	12869
83_0_R	52_1_R	overlaps	10140
83_0_R	52_1_R	links	10250
83_0_R	52_0_F	links	11622
83_0_R	38_1_F	links	12324
83_0_R	52_1_F	links	11622
83_0_R	38_0_F	links	12324
83_0_R	52_0_R	overlaps	10140
83_0_R	52_0_R	links	10250
65_0_F	6_0_R	links	3780
65_0_F	67_1_R	overlaps	753
65_0_F	6_1_R	links	3780
65_0_F	67_0_R	overlaps	753
73_0_F	59_0_F	links	4084
73_0_F	25_1_R	links	5268
73_0_F	86_1_F	overlaps	1035
73_0_F	25_0_R	links	5268
73_0_F	86_0_F	overlaps	1035
73_0_F	59_1_F	links	4084
56_1_R	103_0_F	overlaps	150
56_1_R	103_1_F	overlaps	150
52_1_F	53_0_R	overlaps	356
52_1_F	74_0_R	links	3782
52_1_F	83_0_F	overlaps	356
52_1_F	83_0_F	links	466
82_0_R	110_0_R	links	6126
82_0_R	70_0_R	links	5521
82_0_R	110_1_R	links	6126
82_0_R	77_0_F	overlaps	2703
82_0_R	77_0_F	links	2836
82_0_R	70_1_R	links	5521
82_0_R	18_1_R	links	6537
82_0_R	18_0_R	links	6537
;
